Version identifier: 22.1.0.0 | 2022-03-09 | 1a383f8ce
CPXPARAM_Threads                                 1
CPXPARAM_MIP_Strategy_VariableSelect             3
CPXPARAM_TimeLimit                               599.99315049899997
Tried aggregator 1 time.
MIP Presolve eliminated 9 rows and 0 columns.
MIP Presolve modified 1 coefficients.
Reduced MIP has 1216 rows, 7500 columns, and 65468 nonzeros.
Reduced MIP has 7500 binaries, 0 generals, 0 SOSs, and 0 indicators.
Presolve time = 0.04 sec. (26.24 ticks)
Tried aggregator 1 time.
Detecting symmetries...
Reduced MIP has 1216 rows, 7500 columns, and 65468 nonzeros.
Reduced MIP has 7500 binaries, 0 generals, 0 SOSs, and 0 indicators.
Presolve time = 0.04 sec. (34.24 ticks)
Probing time = 0.01 sec. (3.86 ticks)
Clique table members: 300.
MIP emphasis: balance optimality and feasibility.
MIP search method: dynamic search.
Parallel mode: none, using 1 thread.
Root relaxation solution time = 0.48 sec. (516.56 ticks)

        Nodes                                         Cuts/
   Node  Left     Objective  IInf  Best Integer    Best Bound    ItCnt     Gap

      0     0        0.0000   776                      0.0000     2667         
*     0+    0                            0.0000        0.0000             0.00%
      0     0        cutoff              0.0000        0.0000     2667    0.00%
Elapsed time = 3.87 sec. (4390.04 ticks, tree = 0.01 MB, solutions = 1)

Root node processing (before b&c):
  Real time             =    3.87 sec. (4390.26 ticks)
Sequential b&c:
  Real time             =    0.00 sec. (0.00 ticks)
                          ------------
Total (root+branch&cut) =    3.87 sec. (4390.26 ticks)
Primal:	300
Dual:	300
Status:	Optimal
Time:	3.90847
Sequence:
	4
	2
	19
	3
	17
	10
	24
	13
	9
	0
	23
	11
	0
	4
	13
	8
	5
	10
	8
	20
	22
	7
	3
	15
	10
	21
	15
	3
	17
	14
	6
	15
	10
	12
	24
	6
	9
	2
	23
	20
	22
	10
	15
	11
	14
	17
	19
	8
	9
	21
	8
	13
	17
	4
	20
	24
	7
	10
	24
	1
	22
	10
	20
	24
	4
	22
	20
	20
	18
	10
	3
	15
	14
	18
	19
	3
	17
	14
	3
	16
	4
	2
	3
	23
	0
	12
	6
	15
	4
	21
	24
	13
	4
	18
	6
	6
	22
	9
	1
	16
	10
	5
	15
	23
	14
	0
	1
	11
	17
	14
	13
	24
	4
	18
	19
	16
	12
	9
	15
	20
	7
	17
	3
	1
	2
	7
	23
	15
	21
	17
	19
	11
	0
	18
	3
	19
	22
	10
	1
	16
	12
	17
	16
	23
	21
	0
	3
	8
	9
	0
	6
	1
	18
	10
	6
	8
	2
	5
	15
	13
	4
	0
	11
	6
	2
	9
	13
	8
	18
	2
	1
	20
	18
	5
	20
	15
	7
	5
	24
	19
	21
	17
	11
	19
	18
	21
	3
	15
	21
	9
	16
	11
	21
	18
	1
	19
	18
	21
	1
	24
	14
	5
	16
	11
	9
	0
	1
	19
	17
	12
	19
	15
	10
	12
	15
	20
	5
	2
	11
	13
	17
	9
	20
	15
	2
	9
	11
	16
	9
	0
	1
	1
	0
	4
	13
	8
	9
	21
	24
	6
	12
	17
	13
	11
	0
	18
	8
	20
	12
	0
	3
	24
	21
	11
	0
	23
	14
	15
	9
	19
	18
	13
	5
	15
	21
	1
	2
	23
	0
	15
	21
	8
	4
	16
	21
	8
	10
	11
	8
	0
	4
	13
	15
	9
	7
	8
	19
	12
	24
	21
	23
	2
	1
	6
	17
	5
	20
	16
	4
	9
